10J3M/DAT/10J3MULX-14.dat
10 3
8.0244 2.8327
37.6953 6.1396
41.159 6.4155
29.7959 5.4586
11.6229 3.4092
18.6299 4.3162
11.2781 3.3583
26.8268 5.1795
11.2989 3.3614
47.2471 6.8737
15.7816