10J3M/SOL/10J3MULX-14.sol
solution status: optimal solution found
objective value:                     79.6376666666667
x#1#3                                               1 	(obj:0)
x#2#1                               0.383305389417145 	(obj:0)
x#2#2                               0.616694610582855 	(obj:0)
x#3#2                               0.856944163729949 	(obj:0)
x#3#3                               0.143055836270051 	(obj:0)
x#4#1                                               1 	(obj:0)
x#5#1                               0.149430198486507 	(obj:0)
x#5#2                               0.850569801513493 	(obj:0)
x#6#1                                               1 	(obj:0)
x#7#3                                               1 	(obj:0)
x#8#1                                               1 	(obj:0)
x#9#3                                               1 	(obj:0)
x#10#2                              0.905131869556179 	(obj:0)
x#10#3                              0.094868130443821 	(obj:0)
z                                    79.6376666666667 	(obj:1)
